Route #1: 1 24 15 44 7 27 14 39 6 1
Route #2: 1 10 46 37 33 4 23 40 8 12 34 1
Route #3: 1 20 9 43 25 17 16 29 1
Route #4: 1 31 5 3 38 11 1
Route #5: 1 45 26 19 36 13 21 1
Route #6: 1 30 32 35 41 2 28 42 22 1
Route #7: 1 18 1
cost 1107.675201067276
